$comment
job3 - cvs-adc(2)-x calculation with mom to prevent collapse to ground state
$end

$molecule
0 1
 C    -0.696126    -1.136419     0.000000
 C     0.696126    -1.136419     0.000000
 N    -1.417532     0.000000     0.000000
 N     1.417532     0.000000     0.000000
 C     0.696126     1.136419     0.000000
 C    -0.696126     1.136419     0.000000
 H     1.250625     2.067160     0.000000
 H    -1.250625     2.067160     0.000000
 H     1.250625    -2.067160     0.000000
 H    -1.250625    -2.067160     0.000000
$end

$rem
mem_total 12000
mem_static 6000
sym_ignore true
method cvs-adc(2)
basis 6-31G*
ee_singlets 30 
cc_rest_occ 2                  !only excitations from orbitals 1&2 (N 1s)
unrestricted  true
max_scf_cycles 200
$end

