$molecule
0 1
 C    -0.696126    -1.136419     0.000000
 C     0.696126    -1.136419     0.000000
 N    -1.417532     0.000000     0.000000
 N     1.417532     0.000000     0.000000
 C     0.696126     1.136419     0.000000
 C    -0.696126     1.136419     0.000000
 H     1.250625     2.067160     0.000000
 H    -1.250625     2.067160     0.000000
 H     1.250625    -2.067160     0.000000
 H    -1.250625    -2.067160     0.000000
$end

$rem
exchange b3lyp
basis 6-31G*
sym_ignore true
cis_n_roots 30
cis_triplets false
$end

